data;

param n:=26;
param p:=3;
param r:=[1] 0 [2] 2 [3] 1 [4] 1 [5] 7 [6] 5 [7] 5 [8] 5 [9] 20 [10] 22 [11] 21 [12] 20 [13] 6 [14] 10 [15] 40 [16] 25 [17] 4 [18] 33 [19] 34 [20] 20 [21] 18 [22] 63 [23] 49 [24] 54 [25] 3 [26] 45 ;
param w:=[1] 91 [2] 29 [3] 66 [4] 37 [5] 33 [6] 7 [7] 45 [8] 81 [9] 30 [10] 65 [11] 91 [12] 82 [13] 1 [14] 26 [15] 3 [16] 53 [17] 87 [18] 1 [19] 90 [20] 36 [21] 97 [22] 47 [23] 9 [24] 28 [25] 96 [26] 58 ;

end;
